s td 36 4 39
b 1 1 2 14
b 2 12 13 26
b 3 14 27 28
b 4 2 14 15 28
b 5 26 38 39
b 6 12 25 26 38
b 7 2 3 15 28
b 8 3 15 16 28
b 9 3 16 28 29
b 10 3 4 16 29
b 11 4 16 17 29
b 12 4 17 29 30
b 13 4 5 17 30
b 14 5 17 18 30
b 15 5 18 30 31
b 16 5 6 18 31
b 17 6 18 19 31
b 18 6 19 31 32
b 19 6 7 19 32
b 20 7 19 20 32
b 21 7 20 32 33
b 22 7 8 20 33
b 23 8 20 21 33
b 24 8 21 33 34
b 25 8 9 21 34
b 26 9 21 22 34
b 27 9 22 34 35
b 28 9 10 22 35
b 29 10 22 23 35
b 30 10 23 35 36
b 31 10 11 23 36
b 32 11 23 24 36
b 33 11 24 36 37
b 34 11 12 24 37
b 35 12 24 25 37
b 36 12 25 37 38
1 4
2 6
3 4
4 7
5 6
6 36
7 8
8 9
9 10
10 11
11 12
12 13
13 14
14 15
15 16
16 17
17 18
18 19
19 20
20 21
21 22
22 23
23 24
24 25
25 26
26 27
27 28
28 29
29 30
30 31
31 32
32 33
33 34
34 35
35 36
